p edge 210 209 91
e 1 72
e 1 129
e 1 82
e 2 73
e 3 73
e 3 193
e 4 175
e 5 70
e 5 136
e 5 128
e 6 181
e 7 152
e 7 15
e 7 210
e 8 40
e 8 177
e 9 209
e 9 59
e 10 103
e 10 147
e 11 77
e 11 29
e 12 88
e 12 99
e 13 107
e 14 19
e 15 202
e 15 114
e 16 107
e 16 185
e 16 187
e 17 199
e 17 196
e 18 197
e 18 184
e 19 178
e 20 204
e 20 114
e 21 24
e 22 122
e 22 77
e 23 27
e 23 168
e 24 134
e 24 30
e 25 36
e 25 79
e 26 51
e 26 81
e 26 185
e 28 131
e 28 114
e 29 67
e 29 91
e 30 149
e 31 100
e 32 41
e 32 96
e 33 146
e 33 125
e 34 108
e 34 186
e 34 153
e 34 130
e 35 115
e 35 98
e 35 138
e 36 94
e 36 126
e 37 179
e 38 105
e 39 187
e 39 61
e 40 128
e 41 117
e 42 46
e 42 195
e 42 206
e 42 145
e 43 78
e 43 180
e 44 113
e 45 190
e 45 113
e 45 114
e 47 57
e 47 196
e 48 81
e 49 131
e 50 66
e 52 137
e 53 91
e 54 89
e 55 110
e 56 184
e 58 99
e 58 137
e 59 124
e 60 193
e 61 84
e 61 153
e 62 63
e 62 207
e 63 143
e 64 102
e 64 105
e 65 81
e 66 89
e 68 118
e 68 180
e 69 183
e 69 155
e 71 105
e 73 145
e 73 80
e 74 75
e 74 96
e 74 80
e 75 142
e 76 132
e 76 118
e 77 100
e 79 98
e 82 203
e 83 140
e 84 189
e 84 194
e 85 119
e 86 141
e 86 192
e 87 193
e 89 125
e 90 144
e 91 109
e 92 104
e 93 168
e 93 182
e 93 137
e 95 109
e 97 192
e 101 110
e 101 163
e 101 120
e 103 192
e 103 193
e 104 165
e 105 207
e 105 176
e 105 113
e 106 138
e 108 120
e 109 157
e 109 192
e 110 161
e 111 129
e 112 150
e 114 173
e 116 154
e 116 122
e 117 133
e 117 205
e 119 191
e 120 162
e 121 152
e 123 133
e 124 165
e 124 128
e 125 175
e 125 127
e 127 167
e 128 166
e 130 182
e 131 151
e 132 198
e 135 174
e 135 159
e 135 196
e 135 137
e 137 195
e 138 149
e 138 155
e 139 147
e 140 176
e 144 208
e 144 205
e 147 176
e 148 185
e 149 158
e 150 200
e 152 181
e 155 186
e 156 180
e 156 182
e 159 184
e 160 184
e 164 167
e 165 178
e 167 210
e 169 194
e 170 179
e 170 180
e 171 177
e 172 187
e 177 203
e 177 204
e 181 201
e 188 200
e 188 193
e 191 200
